c 
c G(n,p) graph
c graph gen seed     : 6718
c number of vertices : 60
c max number of edges: 1770
c edge probability   : 0.400000
c data structure     : sparse
c
c           Graph Stats
c number of vertices  : 60
c nonisolated vertices: 60
c number of edges     : 716
c edge density        : 0.404520
c max degree          : 34
c avg degree          : 23.87
c min degree          : 16
p col 60 716
e 1 59
e 1 58
e 1 57
e 1 53
e 1 50
e 1 49
e 1 47
e 1 45
e 1 42
e 1 40
e 1 39
e 1 37
e 1 35
e 1 34
e 1 33
e 1 32
e 1 31
e 1 26
e 1 25
e 1 24
e 1 20
e 1 18
e 1 17
e 1 16
e 1 14
e 1 13
e 1 11
e 1 7
e 1 5
e 1 4
e 2 60
e 2 59
e 2 58
e 2 52
e 2 51
e 2 46
e 2 39
e 2 37
e 2 35
e 2 32
e 2 30
e 2 26
e 2 19
e 2 17
e 2 14
e 2 13
e 2 10
e 2 8
e 2 7
e 2 6
e 2 5
e 3 59
e 3 54
e 3 50
e 3 46
e 3 44
e 3 43
e 3 42
e 3 41
e 3 39
e 3 38
e 3 34
e 3 33
e 3 32
e 3 31
e 3 19
e 3 15
e 3 12
e 3 10
e 3 5
e 3 4
e 4 59
e 4 53
e 4 50
e 4 48
e 4 43
e 4 35
e 4 33
e 4 31
e 4 28
e 4 20
e 4 19
e 4 18
e 4 14
e 4 10
e 5 56
e 5 55
e 5 54
e 5 52
e 5 48
e 5 47
e 5 45
e 5 43
e 5 42
e 5 40
e 5 37
e 5 36
e 5 32
e 5 30
e 5 23
e 5 20
e 5 19
e 5 18
e 5 17
e 5 15
e 5 10
e 5 9
e 5 7
e 6 60
e 6 59
e 6 54
e 6 53
e 6 47
e 6 44
e 6 43
e 6 39
e 6 37
e 6 36
e 6 33
e 6 30
e 6 26
e 6 24
e 6 22
e 6 20
e 6 19
e 6 16
e 6 13
e 6 12
e 6 10
e 6 9
e 7 55
e 7 54
e 7 52
e 7 51
e 7 50
e 7 48
e 7 45
e 7 39
e 7 35
e 7 27
e 7 22
e 7 21
e 7 19
e 7 17
e 7 16
e 7 13
e 7 11
e 8 57
e 8 53
e 8 49
e 8 48
e 8 44
e 8 43
e 8 42
e 8 37
e 8 35
e 8 34
e 8 31
e 8 24
e 8 23
e 8 22
e 8 21
e 8 20
e 8 18
e 8 17
e 8 15
e 8 13
e 8 11
e 8 10
e 9 59
e 9 58
e 9 56
e 9 54
e 9 52
e 9 51
e 9 49
e 9 47
e 9 46
e 9 42
e 9 41
e 9 39
e 9 36
e 9 28
e 9 22
e 9 18
e 9 17
e 9 15
e 9 14
e 9 13
e 9 12
e 9 11
e 9 10
e 10 60
e 10 59
e 10 58
e 10 56
e 10 55
e 10 54
e 10 53
e 10 50
e 10 49
e 10 47
e 10 44
e 10 42
e 10 41
e 10 37
e 10 35
e 10 34
e 10 33
e 10 29
e 10 25
e 10 22
e 10 20
e 10 15
e 10 13
e 10 11
e 11 60
e 11 59
e 11 56
e 11 55
e 11 50
e 11 47
e 11 44
e 11 41
e 11 38
e 11 37
e 11 35
e 11 33
e 11 29
e 11 28
e 11 27
e 11 25
e 11 22
e 11 21
e 11 20
e 11 17
e 11 14
e 11 12
e 12 59
e 12 55
e 12 54
e 12 51
e 12 50
e 12 45
e 12 43
e 12 39
e 12 37
e 12 30
e 12 28
e 12 23
e 12 22
e 12 21
e 12 17
e 12 16
e 13 60
e 13 57
e 13 56
e 13 54
e 13 53
e 13 52
e 13 51
e 13 49
e 13 44
e 13 43
e 13 42
e 13 41
e 13 40
e 13 39
e 13 36
e 13 34
e 13 33
e 13 28
e 13 27
e 13 26
e 13 25
e 13 24
e 13 23
e 13 21
e 13 19
e 13 16
e 13 15
e 14 56
e 14 53
e 14 51
e 14 48
e 14 41
e 14 39
e 14 37
e 14 36
e 14 33
e 14 31
e 14 30
e 14 27
e 14 24
e 14 22
e 14 20
e 14 18
e 14 17
e 14 16
e 14 15
e 15 60
e 15 53
e 15 49
e 15 47
e 15 46
e 15 44
e 15 41
e 15 40
e 15 38
e 15 37
e 15 36
e 15 32
e 15 28
e 15 24
e 15 20
e 16 60
e 16 58
e 16 51
e 16 47
e 16 46
e 16 44
e 16 43
e 16 41
e 16 40
e 16 36
e 16 35
e 16 34
e 16 33
e 16 30
e 16 27
e 16 26
e 16 22
e 16 21
e 16 20
e 16 19
e 16 17
e 17 58
e 17 55
e 17 54
e 17 52
e 17 51
e 17 49
e 17 44
e 17 43
e 17 42
e 17 32
e 17 28
e 17 26
e 17 24
e 17 22
e 17 18
e 18 55
e 18 53
e 18 48
e 18 46
e 18 45
e 18 43
e 18 42
e 18 41
e 18 39
e 18 38
e 18 36
e 18 35
e 18 34
e 18 32
e 18 28
e 18 26
e 18 25
e 18 23
e 18 19
e 19 59
e 19 51
e 19 48
e 19 45
e 19 44
e 19 43
e 19 40
e 19 38
e 19 37
e 19 35
e 19 34
e 19 33
e 19 31
e 19 30
e 19 22
e 19 21
e 20 55
e 20 54
e 20 51
e 20 46
e 20 43
e 20 40
e 20 38
e 20 37
e 20 36
e 20 35
e 20 33
e 20 32
e 20 30
e 20 29
e 20 25
e 20 23
e 20 22
e 20 21
e 21 60
e 21 59
e 21 55
e 21 52
e 21 50
e 21 49
e 21 48
e 21 47
e 21 39
e 21 34
e 21 33
e 21 31
e 21 30
e 21 28
e 21 22
e 22 60
e 22 55
e 22 54
e 22 50
e 22 44
e 22 35
e 22 30
e 22 27
e 22 25
e 22 23
e 23 60
e 23 58
e 23 55
e 23 50
e 23 48
e 23 47
e 23 46
e 23 45
e 23 44
e 23 41
e 23 38
e 23 36
e 23 33
e 23 28
e 23 27
e 23 26
e 23 25
e 24 58
e 24 57
e 24 54
e 24 45
e 24 43
e 24 41
e 24 40
e 24 38
e 24 37
e 24 36
e 24 33
e 24 32
e 24 27
e 25 60
e 25 57
e 25 56
e 25 55
e 25 54
e 25 51
e 25 49
e 25 48
e 25 47
e 25 44
e 25 43
e 25 37
e 25 36
e 25 35
e 25 34
e 25 33
e 25 32
e 25 27
e 26 55
e 26 53
e 26 52
e 26 51
e 26 47
e 26 42
e 26 40
e 26 36
e 26 34
e 26 33
e 26 32
e 26 31
e 26 29
e 26 28
e 27 59
e 27 57
e 27 56
e 27 55
e 27 50
e 27 44
e 27 43
e 27 42
e 27 41
e 27 39
e 27 37
e 27 36
e 27 35
e 27 33
e 28 56
e 28 54
e 28 51
e 28 50
e 28 44
e 28 42
e 28 41
e 28 40
e 28 37
e 28 36
e 28 35
e 28 32
e 28 29
e 29 57
e 29 55
e 29 53
e 29 52
e 29 50
e 29 49
e 29 43
e 29 42
e 29 41
e 29 40
e 29 37
e 29 36
e 30 60
e 30 58
e 30 57
e 30 56
e 30 55
e 30 54
e 30 53
e 30 51
e 30 47
e 30 46
e 30 43
e 30 40
e 30 34
e 30 32
e 31 59
e 31 55
e 31 48
e 31 45
e 31 44
e 31 42
e 31 40
e 31 37
e 31 34
e 31 33
e 32 58
e 32 54
e 32 50
e 32 49
e 32 47
e 32 44
e 32 43
e 32 41
e 32 37
e 32 35
e 33 59
e 33 55
e 33 54
e 33 52
e 33 51
e 33 49
e 33 47
e 33 46
e 33 44
e 33 40
e 33 38
e 33 37
e 33 36
e 34 56
e 34 54
e 34 51
e 34 50
e 34 48
e 34 44
e 34 40
e 34 38
e 34 37
e 34 36
e 35 60
e 35 59
e 35 54
e 35 49
e 35 46
e 35 44
e 35 43
e 35 42
e 35 40
e 35 38
e 36 58
e 36 57
e 36 53
e 36 51
e 36 50
e 36 49
e 36 47
e 36 46
e 36 42
e 36 41
e 37 57
e 37 56
e 37 54
e 37 53
e 37 49
e 37 45
e 37 44
e 37 39
e 37 38
e 38 60
e 38 59
e 38 58
e 38 56
e 38 52
e 38 47
e 38 44
e 38 42
e 38 41
e 38 40
e 38 39
e 39 59
e 39 57
e 39 55
e 39 54
e 39 53
e 39 51
e 39 49
e 39 45
e 40 59
e 40 58
e 40 56
e 40 55
e 40 54
e 40 53
e 40 50
e 40 48
e 40 47
e 40 46
e 41 60
e 41 59
e 41 56
e 41 55
e 41 53
e 41 51
e 41 44
e 42 56
e 42 52
e 42 50
e 42 49
e 42 48
e 42 47
e 42 45
e 42 44
e 43 58
e 43 57
e 43 50
e 43 49
e 43 46
e 43 44
e 44 59
e 44 58
e 44 57
e 44 55
e 44 54
e 44 53
e 44 51
e 44 49
e 44 45
e 45 60
e 45 52
e 45 51
e 45 50
e 46 53
e 46 51
e 46 49
e 46 47
e 47 59
e 47 53
e 47 52
e 47 51
e 48 60
e 48 57
e 48 55
e 49 60
e 49 59
e 49 58
e 49 57
e 49 50
e 50 60
e 50 55
e 50 54
e 51 60
e 51 57
e 51 56
e 51 54
e 52 58
e 52 54
e 52 53
e 53 59
e 53 57
e 53 56
e 53 55
e 53 54
e 54 58
e 54 56
e 55 60
e 55 58
e 56 58
e 58 60
